##------CONJUNTOS
set D := D1 D2 D3 D4;
set K := 1 2;

set I := F1 F2 F3 F4 F5 F6 F7 F8 F9 F10 F11 F12 F13 F14 F15 F16 F17 F18 F19 F20;

# F1 -> Excel 1108, Comuna 11
# F2 -> Excel 1106, Comuna 11
# F3 -> Excel 1112, Comuna 11
# F4 -> Excel 1119, Comuna 11
# F5 -> Excel 1495, Comuna 14
# F6 -> Excel 1403, Comuna 14
# F7 -> Excel 1404, Comuna 14
# F8 -> Excel 1498, Comuna 14
# F9 -> Excel 1923, Comuna 19
# F10 -> Excel 1901, Comuna 19
# F11 -> Excel 1999, Comuna 19
# F12 -> Excel 1916, Comuna 19
# F13 -> Excel 1696, Comuna 16
# F14 -> Excel 1601, Comuna 16
# F15 -> Excel 1602, Comuna 16
# F16 -> Excel 1698, Comuna 16
# F17 -> Excel 308, Comuna 3
# F18 -> Excel 313, Comuna 3
# F19 -> Excel 304, Comuna 3
# F20 -> Excel 311, Comuna 3

# Clústeres
set C := C1 C2 C3 C4 C5;
set IC[C1] := F1 F2 F3 F4;
set IC[C2] := F5 F6 F7 F8;
set IC[C3] := F9 F10 F11 F12;
set IC[C4] := F13 F14 F15 F16;
set IC[C5] := F17 F18 F19 F20;

# Número de vehículos por tipo y depósito
set R[D1,1] := V1 V2 V3 V4;
set R[D1,2] := K1 K2;
set R[D2,1] := V5 V6 V7 V8;
set R[D2,2] := K3;
set R[D3,1] := V9 V10 V11 V12;
set R[D3,2] := K4;
set R[D4,1] := V13 V14 V15 V16;
set R[D4,2] := K5 K6;

##------PARAMETROS GLOBALES
param Vel := 25;

##------CAPACIDAD DE VEHÍCULOS (agentes que pueden transportar)
param q :=
1 5
2 10
;

##------POLICÍAS DISPONIBLES en cada depósito
param h :=
D1 40
D2 30
D3 30
D4 40
;

##------VEHÍCULOS DISPONIBLES por tipo y depósito
param v:
	1	2 :=
D1	4	2
D2	4	1
D3	4	1
D4	4	2
;

##-----DISTANCIAS ENTRE NODOS [km]
param dist:
	F1	F2	F3	F4	F5	F6	F7	F8	F9	F10	F11	F12	F13	F14	F15	F16	F17	F18	F19	F20	D1	D2	D3	D4 :=
F1	0	1.44	1.46	1.46	6.26	6.45	6.12	6.36	5.02	6.31	5.8	4.18	5.52	3.96	3.49	4.59	4.46	4.81	4.72	4.83	3.52	7.74	5.78	4.97
F2	1.44	0	1.89	1.88	6.69	6.82	6.43	6.77	4.52	5.82	5.32	3.7	5.27	3.64	3.3	4.26	4.41	4.91	4.56	4.84	3.55	8.18	5.3	5.38
F3	1.46	1.89	0	1.65	6.11	6.42	6.18	6.24	5.44	6.74	6.13	4.5	6.01	4.47	3.97	5.11	4.22	4.44	4.6	4.52	3.24	7.24	6.09	4.88
F4	1.46	1.88	1.65	0	5.76	5.93	5.61	5.85	5.36	6.64	6.24	4.63	5.43	3.99	3.38	4.62	4.89	5.15	5.21	5.22	3.93	7.61	6.23	4.46
F5	6.26	6.69	6.11	5.76	0	2.18	3.06	1.32	9.9	11.07	10.98	9.42	8.11	7.66	6.74	8.13	8.96	8.59	9.57	8.99	7.97	6.92	11.0	2.31
F6	6.45	6.82	6.42	5.93	2.18	0	1.96	1.81	9.72	10.81	10.92	9.44	7.45	7.27	6.38	7.67	9.51	9.29	10.02	9.61	8.49	8.12	10.97	2.54
F7	6.12	6.43	6.18	5.61	3.06	1.96	0	2.74	9.05	10.07	10.32	8.91	6.52	6.5	5.63	6.84	9.4	9.32	9.83	9.58	8.38	8.8	10.39	2.75
F8	6.36	6.77	6.24	5.85	1.32	1.81	2.74	0	9.9	11.05	11.02	9.48	7.96	7.59	6.68	8.04	9.18	8.85	9.75	9.22	8.18	7.29	11.05	2.34
F9	5.02	4.52	5.44	5.36	9.9	9.72	9.05	9.9	0	2.25	2.44	2.44	4.8	3.63	4.39	3.62	6.1	7.15	5.58	6.74	5.87	11.61	2.63	8.54
F10	6.31	5.82	6.74	6.64	11.07	10.81	10.07	11.05	2.25	0	2.66	3.59	5.24	4.52	5.39	4.3	7.22	8.32	6.61	7.87	7.09	12.91	2.92	9.71
F11	5.8	5.32	6.13	6.24	10.98	10.92	10.32	11.02	2.44	2.66	0	2.58	6.29	5.07	5.76	5.11	5.8	6.95	5.1	6.44	5.87	11.94	1.2	9.64
F12	4.18	3.7	4.5	4.63	9.42	9.44	8.91	9.48	2.44	3.59	2.58	0	5.67	4.12	4.58	4.39	4.6	5.68	4.09	5.25	4.45	10.38	2.55	8.09
F13	5.52	5.27	6.01	5.43	8.11	7.45	6.52	7.96	4.8	5.24	6.29	5.67	0	2.67	3.0	2.22	8.5	9.19	8.36	9.03	7.8	11.95	6.48	6.88
F14	3.96	3.64	4.47	3.99	7.66	7.27	6.5	7.59	3.63	4.52	5.07	4.12	2.67	0	1.86	1.58	6.77	7.49	6.64	7.32	6.09	10.65	5.21	6.32
F15	3.49	3.3	3.97	3.38	6.74	6.38	5.63	6.68	4.39	5.39	5.76	4.58	3.0	1.86	0	2.38	6.69	7.26	6.69	7.17	5.89	9.95	5.87	5.41
F16	4.59	4.26	5.11	4.62	8.13	7.67	6.84	8.04	3.62	4.3	5.11	4.39	2.22	1.58	2.38	0	7.31	8.07	7.12	7.87	6.67	11.28	5.28	6.81
F17	4.46	4.41	4.22	4.89	8.96	9.51	9.4	9.18	6.1	7.22	5.8	4.6	8.5	6.77	6.69	7.31	0	2.13	1.81	1.6	1.96	7.56	5.61	7.92
F18	4.81	4.91	4.44	5.15	8.59	9.29	9.32	8.85	7.15	8.32	6.95	5.68	9.19	7.49	7.26	8.07	2.13	0	2.96	1.57	2.35	6.47	6.77	7.69
F19	4.72	4.56	4.6	5.21	9.57	10.02	9.83	9.75	5.58	6.61	5.1	4.09	8.36	6.64	6.69	7.12	1.81	2.96	0	2.36	2.58	8.42	4.89	8.45
F20	4.83	4.84	4.52	5.22	8.99	9.61	9.58	9.22	6.74	7.87	6.44	5.25	9.03	7.32	7.17	7.87	1.6	1.57	2.36	0	2.25	7.1	6.25	8.02
D1	3.52	3.55	3.24	3.93	7.97	8.49	8.38	8.18	5.87	7.09	5.87	4.45	7.8	6.09	5.89	6.67	1.96	2.35	2.58	2.25	0	7.09	5.73	6.9
D2	7.74	8.18	7.24	7.61	6.92	8.12	8.8	7.29	11.61	12.91	11.94	10.38	11.95	10.65	9.95	11.28	7.56	6.47	8.42	7.1	7.09	0	11.82	7.08
D3	5.78	5.3	6.09	6.23	11.0	10.97	10.39	11.05	2.63	2.92	1.2	2.55	6.48	5.21	5.87	5.28	5.61	6.77	4.89	6.25	5.73	11.82	0	9.66
D4	4.97	5.38	4.88	4.46	2.31	2.54	2.75	2.34	8.54	9.71	9.64	8.09	6.88	6.32	5.41	6.81	7.92	7.69	8.45	8.02	6.9	7.08	9.66	0
;

#### DEMANDA DE POLICÍAS (por nodo i)
param dem :=
F1 125
F2 125
F3 75
F4 100
F5 75
F6 100
F7 125
F8 75
F9 50
F10 125
F11 100
F12 125
F13 75
F14 25
F15 25
F16 50
F17 75
F18 50
F19 125
F20 75
;

#### DEMANDA DE VEHÍCULOS (por tipo)
param mu:
    1   2 :=
 F1  0  2
 F2  0  3
 F3  0  2
 F4  0  2
 F5  0  2
 F6  0  3
 F7  0  3
 F8  0  2
 F9  0  2
 F10  0  2
 F11  0  3
 F12  0  2
 F13  0  2
 F14  0  1
 F15  0  1
 F16  0  2
 F17  0  2
 F18  0  2
 F19  0  3
 F20  0  1
;

#### TIEMPOS DE SERVICIO [horas]
param s :=
F1 2.15
F2 2.00
F3 1.21
F4 1.56
F5 1.44
F6 1.78
F7 2.05
F8 1.15
F9 0.73
F10 2.50
F11 1.42
F12 2.16
F13 1.21
F14 0.42
F15 0.39
F16 0.91
F17 1.46
F18 0.71
F19 1.96
F20 1.44
;

#### VENTANAS DE TIEMPO [horas]
param alpha :=
F1 8
F2 8
F3 8
F4 9
F5 12
F6 6
F7 9
F8 10
F9 9
F10 11
F11 8
F12 14
F13 8
F14 14
F15 11
F16 9
F17 11
F18 14
F19 8
F20 8
;

param beta :=
F1 16
F2 16
F3 18
F4 17
F5 20
F6 14
F7 13
F8 20
F9 19
F10 15
F11 12
F12 20
F13 16
F14 19
F15 19
F16 17
F17 15
F18 24
F19 14
F20 14
;

#### PRIORIDAD DE LOS NODOS
param P :=
F1 0.316
F2 0.254
F3 0.289
F4 0.409
F5 0.364
F6 0.401
F7 0.532
F8 0.612
F9 0.291
F10 0.378
F11 0.210
F12 0.275
F13 0.307
F14 0.293
F15 0.402
F16 0.482
F17 0.266
F18 0.371
F19 0.472
F20 0.201
;

